StudentsNr = 10;
InstructorsNr = 52;
DaysNr = 2;
SlotsPerDay = 10;
AvailabilitySlotsLenght = 10;
RoomNr = 1;
ProgrammNr = 1;
DegreeNr = 2;
RolesNr = 1;
CoursesNr = 7;
InstructorsProgramm = [{1}, {1}, {1}, {1}, {1}, {1}, {1}, {1}, {1}, {1}, {1}, {1}, {1}, {1}, {1}, {1}, {1}, {1}, {1}, {1}, {1}, {1}, {1}, {1}, {1}, {1}, {1}, {1}, {1}, {1}, {1}, {1}, {1}, {1}, {1}, {1}, {1}, {1}, {1}, {1}, {1}, {1}, {1}, {1}, {1}, {1}, {1}, {1}, {1}, {1}, {1}, {1}];
InstructorRolesPerProgramm = [|{1, 2, 6, 7, 9, 10, 12, 13, 14, 18, 21, 23, 25, 27, 30, 35, 36, 37, 40, 42, 44, 46, 47, 48, 49, 50, 51}|];
InstructorsAvailability = [|1, 0, |0, 1, |0, 1, |1, 1, |1, 1, |1, 1, |1, 1, |1, 1, |0, 1, |0, 0, |1, 1, |0, 1, |0, 1, |0, 1, |0, 1, |1, 0, |0, 1, |1, 1, |0, 1, |0, 1, |1, 1, |1, 1, |1, 1, |1, 1, |1, 1, |0, 1, |1, 1, |1, 0, |1, 1, |0, 0, |0, 1, |0, 1, |0, 0, |0, 1, |0, 1, |1, 1, |1, 1, |1, 1, |1, 1, |0, 1, |1, 1, |1, 1, |1, 1, |0, 0, |1, 1, |1, 1, |1, 0, |1, 1, |1, 1, |1, 1, |1, 1, |0, 1|];
StudentsProgramm = [1, 1, 1, 1, 1, 1, 1, 1, 1, 1];
StudentsDegree = [1, 1, 1, 2, 1, 2, 2, 2, 1, 1];
StudentsSupervisorId = [51, 26, 11, 30, 20, 26, 5, 47, 37, 15];
StudentsCourseIds = [{2, 3, 4, 5, 6}, {1, 2, 3, 4, 5}, {1, 2, 4, 6, 7}, {}, {1, 3, 4, 5, 6}, {}, {}, {}, {2, 3, 4, 6, 7}, {2, 3, 4, 5, 6}];
StudentsAvailability = [|1, 1, |1, 1, |1, 0, |0, 0, |1, 1, |0, 1, |0, 1, |0, 1, |1, 1, |0, 1|];
TheoryticalMinCard = [0, 0, 0, 0, 1, 1, 1, 0, 0, 0];
CoursesInstructorIds = [{4, 6, 7, 8, 10, 11, 13, 16, 17, 19, 26, 27, 31, 33, 35, 36, 43, 46, 47, 50, 52}, {1, 2, 4, 6, 7, 9, 10, 11, 12, 15, 18, 20, 21, 23, 24, 26, 28, 29, 30, 31, 32, 33, 34, 36, 37, 39, 41, 42, 45, 48, 51}, {4, 5, 6, 8, 10, 11, 12, 14, 15, 17, 21, 23, 24, 30, 33, 34, 35, 36, 37, 38, 39, 40, 42, 44, 45, 46, 47, 49, 51}, {2, 3, 5, 8, 10, 12, 23, 28, 29, 30, 35, 41, 42, 45, 46}, {2, 5, 6, 10, 11, 12, 17, 21, 26, 30, 33, 36, 37, 38, 41, 42, 44, 45, 47, 48}, {1, 2, 3, 6, 8, 9, 15, 17, 18, 19, 21, 22, 23, 25, 27, 28, 30, 31, 32, 33, 34, 35, 36, 38, 39, 40, 41, 45, 46, 48, 49, 51, 52}, {2, 11, 12, 15, 26, 45}];
RolesDemands = [25];
RolesContinuity = [];
ExamLen = [1, 1, 1, 2, 1, 2, 2, 2, 1, 1];
LunchTsMinLen = 1;
LunchStarts = [4..7, 13..16];
SupervisorAvailable = 5;
OptimalLunchLenght = [0, 1];
OptimalStartTs = [1, 0];
OptimalFinishTs = [2, 10];
MinimizeRooms = 200;
RolesSoftContinuity = [|1|3|];
SameDegreeInRoom = 0;
Mergeability = 2;
